unsat
(error "line 1049 column 17: model is not available")
(error "line 1050 column 17: model is not available")
(error "line 1051 column 18: model is not available")
(error "line 1052 column 18: model is not available")
(error "line 1053 column 18: model is not available")
(error "line 1054 column 18: model is not available")
(error "line 1055 column 18: model is not available")
(error "line 1056 column 18: model is not available")
(error "line 1057 column 18: model is not available")
(error "line 1058 column 18: model is not available")
(error "line 1059 column 18: model is not available")
(error "line 1060 column 18: model is not available")
(error "line 1061 column 17: model is not available")
(error "line 1062 column 18: model is not available")
(error "line 1063 column 18: model is not available")
(error "line 1064 column 18: model is not available")
(error "line 1065 column 18: model is not available")
(error "line 1066 column 18: model is not available")
(error "line 1067 column 18: model is not available")
(error "line 1068 column 18: model is not available")
(error "line 1069 column 18: model is not available")
(error "line 1070 column 18: model is not available")
(error "line 1071 column 18: model is not available")
(error "line 1072 column 17: model is not available")
(error "line 1073 column 18: model is not available")
(error "line 1074 column 18: model is not available")
(error "line 1075 column 18: model is not available")
(error "line 1076 column 18: model is not available")
(error "line 1077 column 18: model is not available")
(error "line 1078 column 18: model is not available")
(error "line 1079 column 18: model is not available")
(error "line 1080 column 18: model is not available")
(error "line 1081 column 18: model is not available")
(error "line 1082 column 18: model is not available")
(error "line 1083 column 17: model is not available")
(error "line 1084 column 18: model is not available")
(error "line 1085 column 18: model is not available")
(error "line 1086 column 18: model is not available")
(error "line 1087 column 18: model is not available")
(error "line 1088 column 18: model is not available")
(error "line 1089 column 18: model is not available")
(error "line 1090 column 18: model is not available")
(error "line 1091 column 18: model is not available")
(error "line 1092 column 18: model is not available")
(error "line 1093 column 18: model is not available")
(error "line 1094 column 17: model is not available")
(error "line 1095 column 18: model is not available")
(error "line 1096 column 18: model is not available")
(error "line 1097 column 18: model is not available")
(error "line 1098 column 18: model is not available")
(error "line 1099 column 18: model is not available")
(error "line 1100 column 18: model is not available")
(error "line 1101 column 18: model is not available")
(error "line 1102 column 18: model is not available")
(error "line 1103 column 18: model is not available")
(error "line 1104 column 18: model is not available")
(error "line 1105 column 17: model is not available")
(error "line 1106 column 18: model is not available")
(error "line 1107 column 18: model is not available")
(error "line 1108 column 18: model is not available")
(error "line 1109 column 18: model is not available")
(error "line 1110 column 18: model is not available")
(error "line 1111 column 18: model is not available")
(error "line 1112 column 18: model is not available")
(error "line 1113 column 18: model is not available")
(error "line 1114 column 18: model is not available")
(error "line 1115 column 18: model is not available")
(error "line 1116 column 17: model is not available")
(error "line 1117 column 18: model is not available")
(error "line 1118 column 18: model is not available")
(error "line 1119 column 18: model is not available")
(error "line 1120 column 18: model is not available")
(error "line 1121 column 18: model is not available")
(error "line 1122 column 18: model is not available")
(error "line 1123 column 18: model is not available")
(error "line 1124 column 18: model is not available")
(error "line 1125 column 18: model is not available")
(error "line 1126 column 17: model is not available")
(error "line 1127 column 17: model is not available")
(error "line 1128 column 38: model is not available")
(error "line 1129 column 45: model is not available")
(error "line 1130 column 38: model is not available")
(error "line 1131 column 45: model is not available")
(error "line 1132 column 46: model is not available")
(error "line 1133 column 53: model is not available")
(error "line 1134 column 40: model is not available")
(error "line 1135 column 47: model is not available")
(error "line 1136 column 38: model is not available")
(error "line 1137 column 45: model is not available")
(error "line 1138 column 38: model is not available")
(error "line 1139 column 45: model is not available")
(error "line 1140 column 41: model is not available")
(error "line 1141 column 48: model is not available")
(error "line 1142 column 41: model is not available")
(error "line 1143 column 48: model is not available")
(error "line 1144 column 41: model is not available")
(error "line 1145 column 48: model is not available")
(error "line 1146 column 41: model is not available")
(error "line 1147 column 41: model is not available")
(error "line 1148 column 41: model is not available")
(error "line 1149 column 41: model is not available")
(error "line 1150 column 48: model is not available")
(error "line 1151 column 37: model is not available")
(error "line 1152 column 44: model is not available")
(error "line 1153 column 42: model is not available")
(error "line 1154 column 42: model is not available")
(error "line 1155 column 42: model is not available")
(error "line 1156 column 38: model is not available")
(error "line 1157 column 38: model is not available")
(error "line 1158 column 38: model is not available")
(error "line 1159 column 38: model is not available")
(error "line 1160 column 38: model is not available")
(error "line 1161 column 41: model is not available")
(error "line 1162 column 48: model is not available")
(error "line 1163 column 41: model is not available")
(error "line 1164 column 48: model is not available")
(error "line 1165 column 41: model is not available")
(error "line 1166 column 48: model is not available")
(error "line 1167 column 41: model is not available")
(error "line 1168 column 48: model is not available")
(error "line 1169 column 41: model is not available")
(error "line 1170 column 48: model is not available")
(error "line 1171 column 44: model is not available")
(error "line 1172 column 54: model is not available")
(error "line 1173 column 54: model is not available")
(error "line 1174 column 22: model is not available")
(error "line 1175 column 20: model is not available")
(error "line 1176 column 22: model is not available")
(error "line 1177 column 22: model is not available")
(error "line 1178 column 29: model is not available")
(error "line 1179 column 38: model is not available")
(error "line 1180 column 38: model is not available")
(error "line 1181 column 36: model is not available")
(error "line 1182 column 36: model is not available")
(error "line 1183 column 36: model is not available")
(error "line 1184 column 70: model is not available")
(error "line 1185 column 70: model is not available")
(error "line 1186 column 31: model is not available")
(error "line 1187 column 31: model is not available")
(error "line 1188 column 31: model is not available")
(error "line 1189 column 31: model is not available")
(error "line 1190 column 30: model is not available")
(error "line 1191 column 32: model is not available")
(error "line 1192 column 39: model is not available")
(error "line 1193 column 32: model is not available")
(error "line 1194 column 39: model is not available")
(error "line 1195 column 30: model is not available")
(error "line 1196 column 32: model is not available")
(error "line 1197 column 39: model is not available")
(error "line 1198 column 32: model is not available")
(error "line 1199 column 39: model is not available")
(error "line 1200 column 31: model is not available")
(error "line 1201 column 31: model is not available")
(error "line 1202 column 53: model is not available")
(error "line 1203 column 52: model is not available")
(error "line 1204 column 52: model is not available")
(error "line 1205 column 51: model is not available")
(error "line 1206 column 51: model is not available")
(error "line 1207 column 51: model is not available")
(error "line 1208 column 50: model is not available")
(error "line 1209 column 52: model is not available")
(error "line 1210 column 51: model is not available")
(error "line 1211 column 51: model is not available")
(error "line 1212 column 52: model is not available")
(error "line 1213 column 51: model is not available")
(error "line 1214 column 52: model is not available")
(error "line 1215 column 51: model is not available")
(error "line 1216 column 50: model is not available")
(error "line 1217 column 50: model is not available")
(error "line 1218 column 52: model is not available")
(error "line 1219 column 52: model is not available")
(error "line 1220 column 50: model is not available")
(error "line 1221 column 50: model is not available")
(error "line 1222 column 56: model is not available")
(error "line 1223 column 56: model is not available")
(error "line 1224 column 55: model is not available")
(error "line 1225 column 55: model is not available")
(error "line 1226 column 55: model is not available")
(error "line 1227 column 18: model is not available")
(error "line 1228 column 25: model is not available")
(error "line 1229 column 18: model is not available")
(error "line 1230 column 25: model is not available")
(error "line 1231 column 18: model is not available")
(error "line 1232 column 25: model is not available")
(error "line 1233 column 18: model is not available")
(error "line 1234 column 25: model is not available")
(error "line 1235 column 18: model is not available")
(error "line 1236 column 25: model is not available")
(error "line 1237 column 36: model is not available")
(error "line 1238 column 36: model is not available")
(error "line 1239 column 36: model is not available")
(error "line 1240 column 46: model is not available")
(error "line 1241 column 46: model is not available")
(error "line 1242 column 46: model is not available")
(error "line 1243 column 46: model is not available")
(error "line 1244 column 46: model is not available")
(error "line 1245 column 54: model is not available")
(error "line 1246 column 54: model is not available")
(error "line 1247 column 54: model is not available")
(error "line 1248 column 54: model is not available")
(error "line 1249 column 54: model is not available")
(error "line 1250 column 54: model is not available")
(error "line 1251 column 40: model is not available")
(error "line 1252 column 40: model is not available")
(error "line 1253 column 40: model is not available")
(error "line 1254 column 40: model is not available")
(error "line 1255 column 41: model is not available")
(error "line 1256 column 41: model is not available")
(error "line 1257 column 41: model is not available")
(error "line 1258 column 41: model is not available")
(error "line 1259 column 50: model is not available")
(error "line 1260 column 50: model is not available")
(error "line 1261 column 50: model is not available")
(error "line 1262 column 50: model is not available")
(error "line 1263 column 43: model is not available")
(error "line 1264 column 43: model is not available")
(error "line 1265 column 43: model is not available")
(error "line 1266 column 43: model is not available")
(error "line 1267 column 26: model is not available")
(error "line 1268 column 27: model is not available")
(error "line 1269 column 30: model is not available")
(error "line 1270 column 30: model is not available")
(error "line 1271 column 36: model is not available")
(error "line 1272 column 36: model is not available")
(error "line 1273 column 36: model is not available")
(error "line 1274 column 30: model is not available")
(error "line 1275 column 36: model is not available")
(error "line 1276 column 36: model is not available")
(error "line 1277 column 36: model is not available")
(error "line 1278 column 31: model is not available")
(error "line 1279 column 31: model is not available")
(error "line 1280 column 30: model is not available")
(error "line 1281 column 18: model is not available")
(error "line 1282 column 25: model is not available")
(error "line 1283 column 18: model is not available")
(error "line 1284 column 25: model is not available")
(error "line 1285 column 18: model is not available")
(error "line 1286 column 25: model is not available")
(error "line 1287 column 18: model is not available")
(error "line 1288 column 25: model is not available")
(error "line 1289 column 18: model is not available")
(error "line 1290 column 25: model is not available")
(error "line 1291 column 18: model is not available")
(error "line 1292 column 25: model is not available")
(error "line 1294 column 10: model is not available")
(:added-eqs                      39
 :arith-bound-propagations-cheap 2
 :arith-bound-propagations-lp    29
 :arith-lower                    26
 :arith-make-feasible            4
 :arith-max-columns              83
 :arith-max-rows                 54
 :arith-propagations             2
 :arith-upper                    22
 :array-ax1                      1
 :binary-propagations            222
 :bv-bit2core                    223
 :bv-diseqs                      1
 :bv->core-eq                    10
 :conflicts                      2
 :decisions                      1
 :del-clause                     91
 :eliminated-applications        18
 :eliminated-vars                6
 :max-memory                     3.79
 :memory                         2.99
 :mk-bool-var                    656
 :mk-clause                      334
 :num-allocs                     725666
 :num-checks                     1
 :propagations                   328
 :rlimit-count                   24287
 :time                           0.01
 :total-time                     0.01)

real	0m0.016s
user	0m0.016s
sys	0m0.000s
State: RE Run_time: 0.017914295196533203